WARNING: for repeatability, setting FPU to use double precision
============================[ Problem Statistics ]=============================
|                                                                             |
|  Number of variables:            50                                         |
|  Number of clauses:             218                                         |
|  Parse time:                   0.00 s                                       |
|                                                                             |
============================[ Search Statistics ]==============================
| Conflicts |          ORIGINAL         |          LEARNT          | Progress |
|           |    Vars  Clauses Literals |    Limit  Clauses Lit/Cl |          |
===============================================================================
===============================================================================
restarts              : 1
conflicts             : 13             (9441 /sec)
decisions             : 25             (0.00 % random) (18155 /sec)
propagations          : 265            (192447 /sec)
conflict literals     : 72             (6.49 % deleted)
Memory used           : 20.00 MB
CPU time              : 0.001377 s

SATISFIABLE
